NAME: n200q15D.tsp, 200 nodes, semilla 333
COMMENT: Problema aleatorio de norma euclidea
DIMENSION: 200
CAPACITY: 15
EDGE_WEIGHT_TYPE: EUC_2D
NODE_COORD_SECTION
1   0.0000   0.0000
2 -273.0000 -373.0000
3 -371.0000 -268.0000
4 179.0000 469.0000
5 276.0000 -496.0000
6 422.0000 287.0000
7 -499.0000 -363.0000
8 -316.0000  89.0000
9 -162.0000 460.0000
10   1.0000 -59.0000
11 344.0000 303.0000
12 200.0000 -248.0000
13 -28.0000 -410.0000
14 382.0000  85.0000
15 -112.0000 472.0000
16 262.0000 315.0000
17 274.0000 221.0000
18 101.0000  87.0000
19 -307.0000 284.0000
20 209.0000 -451.0000
21 482.0000 441.0000
22 -130.0000  11.0000
23 -336.0000 386.0000
24  97.0000 -186.0000
25 415.0000 209.0000
26 -479.0000 370.0000
27 -95.0000 132.0000
28 242.0000 444.0000
29 -126.0000 -196.0000
30  75.0000 -326.0000
31 194.0000 123.0000
32 -301.0000 -395.0000
33 -440.0000 -479.0000
34 -272.0000 -387.0000
35 489.0000  56.0000
36  88.0000 182.0000
37 -231.0000 311.0000
38 331.0000 -437.0000
39 -94.0000 228.0000
40 336.0000 296.0000
41 -421.0000 -186.0000
42 -192.0000 492.0000
43 410.0000 -423.0000
44 464.0000 302.0000
45  53.0000 -493.0000
46 363.0000 286.0000
47 149.0000 375.0000
48 -321.0000 -352.0000
49 461.0000   8.0000
50 478.0000 157.0000
51 -126.0000 -72.0000
52 -40.0000 -77.0000
53 -253.0000 -55.0000
54 -305.0000 -10.0000
55 -470.0000 460.0000
56  43.0000 -26.0000
57  27.0000  80.0000
58 495.0000 -429.0000
59  36.0000 310.0000
60 124.0000 382.0000
61 326.0000 -485.0000
62 -28.0000 130.0000
63 -468.0000 -299.0000
64 106.0000 235.0000
65 337.0000 161.0000
66 -328.0000 -402.0000
67 415.0000 -404.0000
68  33.0000 329.0000
69 437.0000 -160.0000
70 296.0000 -36.0000
71 -447.0000 -38.0000
72 -80.0000 -168.0000
73 246.0000 -142.0000
74 358.0000 -433.0000
75 -329.0000 -413.0000
76 380.0000 285.0000
77 301.0000 -157.0000
78 -152.0000 -355.0000
79 -475.0000 -75.0000
80  20.0000 -225.0000
81 -194.0000 125.0000
82 -386.0000 208.0000
83 -215.0000 -357.0000
84 -117.0000 274.0000
85 -270.0000 301.0000
86 456.0000 -378.0000
87 326.0000 270.0000
88 -495.0000 -297.0000
89 -483.0000 -341.0000
90 -306.0000 137.0000
91  74.0000 -449.0000
92 226.0000 154.0000
93 -159.0000  13.0000
94 -83.0000 431.0000
95 -280.0000 -10.0000
96 221.0000 -246.0000
97 273.0000 -380.0000
98 289.0000 259.0000
99 -169.0000 -225.0000
100 -154.0000 -59.0000
101  -1.0000 -403.0000
102 173.0000  27.0000
103 378.0000 271.0000
104 -67.0000 -342.0000
105 -392.0000 -430.0000
106 -291.0000  96.0000
107 -122.0000 -301.0000
108 413.0000 213.0000
109 -166.0000 -185.0000
110 -211.0000 -287.0000
111 -417.0000 -270.0000
112 -355.0000 366.0000
113 173.0000  30.0000
114 -105.0000 -120.0000
115 -494.0000 -418.0000
116 466.0000 -406.0000
117 -353.0000 -29.0000
118 433.0000 403.0000
119 412.0000 207.0000
120 -60.0000 -383.0000
121 -386.0000 344.0000
122 -172.0000 188.0000
123 426.0000 183.0000
124 132.0000 462.0000
125 426.0000 474.0000
126 -177.0000 482.0000
127 -249.0000  95.0000
128 293.0000 -277.0000
129 191.0000 -222.0000
130 -150.0000 430.0000
131 474.0000 -295.0000
132 -256.0000 -262.0000
133 328.0000 -66.0000
134 435.0000 -330.0000
135 237.0000 204.0000
136 -211.0000 277.0000
137 351.0000 309.0000
138 228.0000  86.0000
139 399.0000 -493.0000
140 105.0000 214.0000
141 318.0000 254.0000
142 -477.0000 354.0000
143 -29.0000 -146.0000
144 -469.0000 175.0000
145  42.0000  26.0000
146 -216.0000 429.0000
147 -498.0000 -256.0000
148 118.0000 -276.0000
149 258.0000 -267.0000
150  59.0000 445.0000
151 301.0000 -257.0000
152 -118.0000 180.0000
153 428.0000 225.0000
154  -4.0000 157.0000
155 -347.0000  -9.0000
156 -117.0000 -371.0000
157 473.0000 155.0000
158 -320.0000 409.0000
159 -304.0000 -33.0000
160 256.0000 -379.0000
161 -236.0000 436.0000
162 -453.0000 -210.0000
163 -233.0000 -422.0000
164 -210.0000 -16.0000
165 142.0000 121.0000
166 -63.0000 -32.0000
167 -469.0000 192.0000
168 218.0000 -119.0000
169 477.0000 -412.0000
170 203.0000 -303.0000
171 219.0000 379.0000
172 -382.0000 105.0000
173 -127.0000 -88.0000
174   0.0000 352.0000
175 489.0000 442.0000
176 -499.0000 -198.0000
177 -419.0000 105.0000
178 -334.0000 192.0000
179 -148.0000 -487.0000
180  94.0000 191.0000
181 244.0000 -182.0000
182 381.0000 -291.0000
183 -113.0000 -498.0000
184 -443.0000   9.0000
185 153.0000 -299.0000
186 -93.0000 -69.0000
187 465.0000 -466.0000
188  62.0000 -108.0000
189 -242.0000  -1.0000
190 402.0000 -113.0000
191 316.0000 -290.0000
192 129.0000   7.0000
193  46.0000 -295.0000
194 188.0000 171.0000
195 -18.0000 203.0000
196 200.0000 -368.0000
197 -453.0000  48.0000
198 -81.0000  70.0000
199 347.0000  51.0000
200 331.0000 -258.0000
DISPLAY_DATA_SECTION:
 1  250  250
 2  113   63
 3   64  116
 4  339  484
 5  388    2
 6  461  393
 7    0   68
 8   92  294
 9  169  480
10  250  220
11  422  401
12  350  126
13  236   45
14  441  292
15  194  486
16  381  407
17  387  360
18  300  293
19   96  392
20  354   24
21  491  470
22  185  255
23   82  443
24  298  157
25  457  354
26   10  435
27  202  316
28  371  472
29  187  152
30  287   87
31  347  311
32   99   52
33   30   10
34  114   56
35  494  278
36  294  341
37  134  405
38  415   31
39  203  364
40  418  398
41   39  157
42  154  496
43  455   38
44  482  401
45  276    3
46  431  393
47  324  437
48   89   74
49  480  254
50  489  328
51  187  214
52  230  211
53  123  222
54   97  245
55   15  480
56  271  237
57  263  290
58  497   35
59  268  405
60  312  441
61  413    7
62  236  315
63   16  100
64  303  367
65  418  330
66   86   49
67  457   48
68  266  414
69  468  170
70  398  232
71   26  231
72  210  166
73  373  179
74  429   33
75   85   43
76  440  392
77  400  171
78  174   72
79   12  212
80  260  137
81  153  312
82   57  354
83  142   71
84  191  387
85  115  400
86  478   61
87  413  385
88    2  101
89    8   79
90   97  318
91  287   25
92  363  327
93  170  256
94  208  465
95  110  245
96  360  127
97  386   60
98  394  379
99  165  137
100  173  220
101  249   48
102  336  263
103  439  385
104  216   79
105   54   35
106  104  298
107  189   99
108  456  356
109  167  157
110  144  106
111   41  115
112   72  433
113  336  265
114  197  190
115    3   41
116  483   47
117   73  235
118  466  451
119  456  353
120  220   58
121   57  422
122  164  344
123  463  341
124  316  481
125  463  487
126  161  491
127  125  297
128  396  111
129  345  139
130  175  465
131  487  102
132  122  119
133  414  217
134  467   85
135  368  352
136  144  388
137  425  404
138  364  293
139  449    3
140  302  357
141  409  377
142   11  427
143  235  177
144   15  337
145  271  263
146  142  464
147    1  122
148  309  112
149  379  116
150  279  472
151  400  121
152  191  340
153  464  362
154  248  328
155   76  245
156  191   64
157  486  327
158   90  454
159   98  233
160  378   60
161  132  468
162   23  145
163  133   39
164  145  242
165  321  310
166  218  234
167   15  346
168  359  190
169  488   44
170  351   98
171  359  439
172   59  302
173  186  206
174  250  426
175  494  471
176    0  151
177   40  302
178   83  346
179  176    6
180  297  345
181  372  159
182  440  104
183  193    1
184   28  254
185  326  100
186  203  215
187  482   17
188  281  196
189  129  249
190  451  193
191  408  105
192  314  253
193  273  102
194  344  335
195  241  351
196  350   66
197   23  274
198  209  285
199  423  275
200  415  121
DEMAND_SECTION
1 3
2 -7
3 0
4 -9
5 8
6 5
7 5
8 7
9 -4
10 2
11 5
12 6
13 -5
14 5
15 7
16 8
17 7
18 2
19 -1
20 -4
21 1
22 4
23 -7
24 -1
25 7
26 -9
27 -7
28 -8
29 6
30 4
31 -7
32 3
33 1
34 -5
35 -3
36 7
37 0
38 3
39 -4
40 -6
41 -9
42 -8
43 6
44 8
45 -2
46 5
47 8
48 -10
49 2
50 0
51 -7
52 2
53 -9
54 -7
55 -10
56 0
57 -4
58 -3
59 -1
60 2
61 9
62 -3
63 -3
64 -6
65 -5
66 -7
67 1
68 6
69 0
70 9
71 6
72 8
73 -3
74 9
75 6
76 -2
77 -8
78 -4
79 -7
80 4
81 -2
82 -5
83 -10
84 5
85 8
86 1
87 0
88 -7
89 -1
90 -10
91 -2
92 5
93 -4
94 -5
95 8
96 -10
97 -5
98 -2
99 -2
100 8
101 9
102 4
103 1
104 -7
105 -2
106 -10
107 -4
108 -10
109 -10
110 -7
111 4
112 -3
113 6
114 3
115 -5
116 -5
117 1
118 -1
119 7
120 3
121 5
122 6
123 0
124 -5
125 2
126 6
127 -8
128 -1
129 -10
130 4
131 -1
132 1
133 2
134 5
135 7
136 3
137 -5
138 -10
139 4
140 -10
141 -10
142 -10
143 2
144 4
145 9
146 5
147 -8
148 4
149 8
150 6
151 -8
152 8
153 7
154 7
155 9
156 4
157 -8
158 5
159 2
160 -9
161 -7
162 -3
163 3
164 2
165 -4
166 -1
167 -3
168 8
169 7
170 2
171 9
172 4
173 7
174 0
175 -7
176 6
177 -6
178 -1
179 -7
180 0
181 -5
182 5
183 8
184 -4
185 2
186 6
187 9
188 -5
189 -3
190 -5
191 1
192 -4
193 8
194 -5
195 -3
196 5
197 7
198 3
199 10
200 3
EOF